c turning on binary mode checking
c parsing input formula with 259840 variables and 1039924 clauses
c finished parsing, read 23642926 bytes from proof file
c detected empty clause; start verification via backward checking
c 12744 of 1039924 clauses in core                            
c 16301 of 604873 lemmas in core using 93068 resolution steps
c 0 RAT lemmas in core; 955 redundant literals in core lemmas
s VERIFIED
c verification time: 2.397 seconds
